14682
0 0 0 0 1 1 0 1 1 1 1 1 0 1 0 0 0 0 1 0 0 1 1 0 0 1 0 1 0 0
22 10 18 11 25 8 13 18 7 4 21 27 8 21 5 22 13 8 9 5 21 27 8 9 13 10 8 8 25 5 4 13 11 9 4 21 27 27 25 5 11 13 10 10 21 10 7 8 5 13 22 13 8 7 13 21 27 8 25 11 22 13 8 7 9 4 13 22 9 4 8 13 18 21 4 10 7 8 7 7 11 13 10 9 4 21 27 8 11 5 4 13 8 7 4 8 27 18 21 5 4 5 10 18 21 22 27 8 8 13 10 27 9 5 13 22 27 8 7 5 27 27 8 7 7 22 8 27 25 11 10 13 8 7 7 21 18 8 8 13 8 13 18 21 21 22 27 8 25 9